140	32	4	54	
33	34	38	34

0	0	0	0	0	0	3	1	2	3
1	6	3	1	6	1	3	6	13	17
2	6	5	9	6	2	2	5	8
3	4	9	5	7	6	3	4	12	17
4	9	2	5	10	3	3	5	7	9
5	3	5	6	9	2	3	19	20	21
6	7	7	3	1	10	3	10	16	30
7	9	9	9	8	7	3	11	14	15
8	2	8	1	5	3	3	17	23	24
9	4	6	9	9	4	2	13	14
10	8	5	5	9	5	3	14	15	24
11	3	8	6	5	2	2	16	21
12	9	4	4	8	2	3	15	22	30
13	2	9	4	8	7	3	16	20	21
14	5	8	2	1	1	1	18
15	3	1	9	6	4	2	18	25
16	1	10	7	8	3	3	19	22	23
17	3	5	6	7	7	3	18	25	30
18	5	3	2	4	5	3	19	20	26
19	5	3	10	3	2	2	28	29
20	7	8	1	3	3	1	29
21	10	7	4	5	6	3	22	23	24
22	5	10	8	1	8	1	25
23	8	9	9	7	9	2	27	28
24	8	4	10	2	2	1	26
25	10	6	8	2	7	2	26	28
26	8	1	4	5	2	1	27
27	3	3	10	3	4	1	29
28	5	5	7	5	10	1	31
29	1	3	3	4	7	1	31
30	7	6	2	5	6	1	31
31	0	0	0	0	0	0
